/* Objective function */
min: +C1 +C2 +C3 +C4 +C5 +C6 +C7 +C8 +C9 +C10 +C11 +C12 +C13 +C14;

/* Constraints */
+C15 +C16 +C17 +C18 +C19 +C20 +C21 +C22 +C23 +C24 +C25 +C26 +C27 +C28 = 1;
+C29 +C30 +C31 +C32 +C33 +C34 +C35 +C36 +C37 +C38 +C39 +C40 +C41 +C42 = 1;
+C43 +C44 +C45 +C46 +C47 +C48 +C49 +C50 +C51 +C52 +C53 +C54 +C55 +C56 = 1;
+C57 +C58 +C59 +C60 +C61 +C62 +C63 +C64 +C65 +C66 +C67 +C68 +C69 +C70 = 1;
+C71 +C72 +C73 +C74 +C75 +C76 +C77 +C78 +C79 +C80 +C81 +C82 +C83 +C84 = 1;
+C85 +C86 +C87 +C88 +C89 +C90 +C91 +C92 +C93 +C94 +C95 +C96 +C97 +C98 = 1;
+C99 +C100 +C101 +C102 +C103 +C104 +C105 +C106 +C107 +C108 +C109 +C110 +C111 +C112 = 1;
+C113 +C114 +C115 +C116 +C117 +C118 +C119 +C120 +C121 +C122 +C123 +C124 +C125 +C126 = 1;
+C127 +C128 +C129 +C130 +C131 +C132 +C133 +C134 +C135 +C136 +C137 +C138 +C139 +C140 = 1;
+C141 +C142 +C143 +C144 +C145 +C146 +C147 +C148 +C149 +C150 +C151 +C152 +C153 +C154 = 1;
+C155 +C156 +C157 +C158 +C159 +C160 +C161 +C162 +C163 +C164 +C165 +C166 +C167 +C168 = 1;
+C169 +C170 +C171 +C172 +C173 +C174 +C175 +C176 +C177 +C178 +C179 +C180 +C181 +C182 = 1;
+C183 +C184 +C185 +C186 +C187 +C188 +C189 +C190 +C191 +C192 +C193 +C194 +C195 +C196 = 1;
+C197 +C198 +C199 +C200 +C201 +C202 +C203 +C204 +C205 +C206 +C207 +C208 +C209 +C210 = 1;
+4.5 C15 +2.89 C29 +6.86 C43 +7.874 C57 +4.35 C71 +5.3 C85 +2.12 C99 +3.54 C113 +6.44 C127 +3.46 C141
 +2.34 C155 +7.2234 C169 +4.34 C183 +6.543 C197 <= 22.1224;
+4.6 C15 +5.7 C29 +3.9 C43 +8.987 C57 +12.8 C71 +2.653 C85 +6.33 C99 +8.087 C113 +10 C127 +8.3 C141 +12.34 C155
 +9.332 C169 +6.03344 C183 +13.65 C197 <= 19.864;
+4.5 C16 +2.89 C30 +6.86 C44 +7.874 C58 +4.35 C72 +5.3 C86 +2.12 C100 +3.54 C114 +6.44 C128 +3.46 C142
 +2.34 C156 +7.2234 C170 +4.34 C184 +6.543 C198 <= 22.1224;
+4.6 C16 +5.7 C30 +3.9 C44 +8.987 C58 +12.8 C72 +2.653 C86 +6.33 C100 +8.087 C114 +10 C128 +8.3 C142
 +12.34 C156 +9.332 C170 +6.03344 C184 +13.65 C198 <= 19.864;
+4.5 C17 +2.89 C31 +6.86 C45 +7.874 C59 +4.35 C73 +5.3 C87 +2.12 C101 +3.54 C115 +6.44 C129 +3.46 C143
 +2.34 C157 +7.2234 C171 +4.34 C185 +6.543 C199 <= 22.1224;
+4.6 C17 +5.7 C31 +3.9 C45 +8.987 C59 +12.8 C73 +2.653 C87 +6.33 C101 +8.087 C115 +10 C129 +8.3 C143
 +12.34 C157 +9.332 C171 +6.03344 C185 +13.65 C199 <= 19.864;
+4.5 C18 +2.89 C32 +6.86 C46 +7.874 C60 +4.35 C74 +5.3 C88 +2.12 C102 +3.54 C116 +6.44 C130 +3.46 C144
 +2.34 C158 +7.2234 C172 +4.34 C186 +6.543 C200 <= 22.1224;
+4.6 C18 +5.7 C32 +3.9 C46 +8.987 C60 +12.8 C74 +2.653 C88 +6.33 C102 +8.087 C116 +10 C130 +8.3 C144
 +12.34 C158 +9.332 C172 +6.03344 C186 +13.65 C200 <= 19.864;
+4.5 C19 +2.89 C33 +6.86 C47 +7.874 C61 +4.35 C75 +5.3 C89 +2.12 C103 +3.54 C117 +6.44 C131 +3.46 C145
 +2.34 C159 +7.2234 C173 +4.34 C187 +6.543 C201 <= 22.1224;
+4.6 C19 +5.7 C33 +3.9 C47 +8.987 C61 +12.8 C75 +2.653 C89 +6.33 C103 +8.087 C117 +10 C131 +8.3 C145
 +12.34 C159 +9.332 C173 +6.03344 C187 +13.65 C201 <= 19.864;
+4.5 C20 +2.89 C34 +6.86 C48 +7.874 C62 +4.35 C76 +5.3 C90 +2.12 C104 +3.54 C118 +6.44 C132 +3.46 C146
 +2.34 C160 +7.2234 C174 +4.34 C188 +6.543 C202 <= 22.1224;
+4.6 C20 +5.7 C34 +3.9 C48 +8.987 C62 +12.8 C76 +2.653 C90 +6.33 C104 +8.087 C118 +10 C132 +8.3 C146
 +12.34 C160 +9.332 C174 +6.03344 C188 +13.65 C202 <= 19.864;
+4.5 C21 +2.89 C35 +6.86 C49 +7.874 C63 +4.35 C77 +5.3 C91 +2.12 C105 +3.54 C119 +6.44 C133 +3.46 C147
 +2.34 C161 +7.2234 C175 +4.34 C189 +6.543 C203 <= 22.1224;
+4.6 C21 +5.7 C35 +3.9 C49 +8.987 C63 +12.8 C77 +2.653 C91 +6.33 C105 +8.087 C119 +10 C133 +8.3 C147
 +12.34 C161 +9.332 C175 +6.03344 C189 +13.65 C203 <= 19.864;
+4.5 C22 +2.89 C36 +6.86 C50 +7.874 C64 +4.35 C78 +5.3 C92 +2.12 C106 +3.54 C120 +6.44 C134 +3.46 C148
 +2.34 C162 +7.2234 C176 +4.34 C190 +6.543 C204 <= 22.1224;
+4.6 C22 +5.7 C36 +3.9 C50 +8.987 C64 +12.8 C78 +2.653 C92 +6.33 C106 +8.087 C120 +10 C134 +8.3 C148
 +12.34 C162 +9.332 C176 +6.03344 C190 +13.65 C204 <= 19.864;
+4.5 C23 +2.89 C37 +6.86 C51 +7.874 C65 +4.35 C79 +5.3 C93 +2.12 C107 +3.54 C121 +6.44 C135 +3.46 C149
 +2.34 C163 +7.2234 C177 +4.34 C191 +6.543 C205 <= 22.1224;
+4.6 C23 +5.7 C37 +3.9 C51 +8.987 C65 +12.8 C79 +2.653 C93 +6.33 C107 +8.087 C121 +10 C135 +8.3 C149
 +12.34 C163 +9.332 C177 +6.03344 C191 +13.65 C205 <= 19.864;
+4.5 C24 +2.89 C38 +6.86 C52 +7.874 C66 +4.35 C80 +5.3 C94 +2.12 C108 +3.54 C122 +6.44 C136 +3.46 C150
 +2.34 C164 +7.2234 C178 +4.34 C192 +6.543 C206 <= 22.1224;
+4.6 C24 +5.7 C38 +3.9 C52 +8.987 C66 +12.8 C80 +2.653 C94 +6.33 C108 +8.087 C122 +10 C136 +8.3 C150
 +12.34 C164 +9.332 C178 +6.03344 C192 +13.65 C206 <= 19.864;
+4.5 C25 +2.89 C39 +6.86 C53 +7.874 C67 +4.35 C81 +5.3 C95 +2.12 C109 +3.54 C123 +6.44 C137 +3.46 C151
 +2.34 C165 +7.2234 C179 +4.34 C193 +6.543 C207 <= 22.1224;
+4.6 C25 +5.7 C39 +3.9 C53 +8.987 C67 +12.8 C81 +2.653 C95 +6.33 C109 +8.087 C123 +10 C137 +8.3 C151
 +12.34 C165 +9.332 C179 +6.03344 C193 +13.65 C207 <= 19.864;
+4.5 C26 +2.89 C40 +6.86 C54 +7.874 C68 +4.35 C82 +5.3 C96 +2.12 C110 +3.54 C124 +6.44 C138 +3.46 C152
 +2.34 C166 +7.2234 C180 +4.34 C194 +6.543 C208 <= 22.1224;
+4.6 C26 +5.7 C40 +3.9 C54 +8.987 C68 +12.8 C82 +2.653 C96 +6.33 C110 +8.087 C124 +10 C138 +8.3 C152
 +12.34 C166 +9.332 C180 +6.03344 C194 +13.65 C208 <= 19.864;
+4.5 C27 +2.89 C41 +6.86 C55 +7.874 C69 +4.35 C83 +5.3 C97 +2.12 C111 +3.54 C125 +6.44 C139 +3.46 C153
 +2.34 C167 +7.2234 C181 +4.34 C195 +6.543 C209 <= 22.1224;
+4.6 C27 +5.7 C41 +3.9 C55 +8.987 C69 +12.8 C83 +2.653 C97 +6.33 C111 +8.087 C125 +10 C139 +8.3 C153
 +12.34 C167 +9.332 C181 +6.03344 C195 +13.65 C209 <= 19.864;
+4.5 C28 +2.89 C42 +6.86 C56 +7.874 C70 +4.35 C84 +5.3 C98 +2.12 C112 +3.54 C126 +6.44 C140 +3.46 C154
 +2.34 C168 +7.2234 C182 +4.34 C196 +6.543 C210 <= 22.1224;
+4.6 C28 +5.7 C42 +3.9 C56 +8.987 C70 +12.8 C84 +2.653 C98 +6.33 C112 +8.087 C126 +10 C140 +8.3 C154
 +12.34 C168 +9.332 C182 +6.03344 C196 +13.65 C210 <= 19.864;
-1000000 C1 +C15 +C29 +C43 +C57 +C71 +C85 +C99 +C113 +C127 +C141 +C155 +C169 +C183 +C197 <= 0;
-1000000 C2 +C16 +C30 +C44 +C58 +C72 +C86 +C100 +C114 +C128 +C142 +C156 +C170 +C184 +C198 <= 0;
-1000000 C3 +C17 +C31 +C45 +C59 +C73 +C87 +C101 +C115 +C129 +C143 +C157 +C171 +C185 +C199 <= 0;
-1000000 C4 +C18 +C32 +C46 +C60 +C74 +C88 +C102 +C116 +C130 +C144 +C158 +C172 +C186 +C200 <= 0;
-1000000 C5 +C19 +C33 +C47 +C61 +C75 +C89 +C103 +C117 +C131 +C145 +C159 +C173 +C187 +C201 <= 0;
-1000000 C6 +C20 +C34 +C48 +C62 +C76 +C90 +C104 +C118 +C132 +C146 +C160 +C174 +C188 +C202 <= 0;
-1000000 C7 +C21 +C35 +C49 +C63 +C77 +C91 +C105 +C119 +C133 +C147 +C161 +C175 +C189 +C203 <= 0;
-1000000 C8 +C22 +C36 +C50 +C64 +C78 +C92 +C106 +C120 +C134 +C148 +C162 +C176 +C190 +C204 <= 0;
-1000000 C9 +C23 +C37 +C51 +C65 +C79 +C93 +C107 +C121 +C135 +C149 +C163 +C177 +C191 +C205 <= 0;
-1000000 C10 +C24 +C38 +C52 +C66 +C80 +C94 +C108 +C122 +C136 +C150 +C164 +C178 +C192 +C206 <= 0;
-1000000 C11 +C25 +C39 +C53 +C67 +C81 +C95 +C109 +C123 +C137 +C151 +C165 +C179 +C193 +C207 <= 0;
-1000000 C12 +C26 +C40 +C54 +C68 +C82 +C96 +C110 +C124 +C138 +C152 +C166 +C180 +C194 +C208 <= 0;
-1000000 C13 +C27 +C41 +C55 +C69 +C83 +C97 +C111 +C125 +C139 +C153 +C167 +C181 +C195 +C209 <= 0;
-1000000 C14 +C28 +C42 +C56 +C70 +C84 +C98 +C112 +C126 +C140 +C154 +C168 +C182 +C196 +C210 <= 0;

/* Variable bounds */
C1 <= 1;
C2 <= 1;
C3 <= 1;
C4 <= 1;
C5 <= 1;
C6 <= 1;
C7 <= 1;
C8 <= 1;
C9 <= 1;
C10 <= 1;
C11 <= 1;
C12 <= 1;
C13 <= 1;
C14 <= 1;
C15 <= 1;
C16 <= 1;
C17 <= 1;
C18 <= 1;
C19 <= 1;
C20 <= 1;
C21 <= 1;
C22 <= 1;
C23 <= 1;
C24 <= 1;
C25 <= 1;
C26 <= 1;
C27 <= 1;
C28 <= 1;
C29 <= 1;
C30 <= 1;
C31 <= 1;
C32 <= 1;
C33 <= 1;
C34 <= 1;
C35 <= 1;
C36 <= 1;
C37 <= 1;
C38 <= 1;
C39 <= 1;
C40 <= 1;
C41 <= 1;
C42 <= 1;
C43 <= 1;
C44 <= 1;
C45 <= 1;
C46 <= 1;
C47 <= 1;
C48 <= 1;
C49 <= 1;
C50 <= 1;
C51 <= 1;
C52 <= 1;
C53 <= 1;
C54 <= 1;
C55 <= 1;
C56 <= 1;
C57 <= 1;
C58 <= 1;
C59 <= 1;
C60 <= 1;
C61 <= 1;
C62 <= 1;
C63 <= 1;
C64 <= 1;
C65 <= 1;
C66 <= 1;
C67 <= 1;
C68 <= 1;
C69 <= 1;
C70 <= 1;
C71 <= 1;
C72 <= 1;
C73 <= 1;
C74 <= 1;
C75 <= 1;
C76 <= 1;
C77 <= 1;
C78 <= 1;
C79 <= 1;
C80 <= 1;
C81 <= 1;
C82 <= 1;
C83 <= 1;
C84 <= 1;
C85 <= 1;
C86 <= 1;
C87 <= 1;
C88 <= 1;
C89 <= 1;
C90 <= 1;
C91 <= 1;
C92 <= 1;
C93 <= 1;
C94 <= 1;
C95 <= 1;
C96 <= 1;
C97 <= 1;
C98 <= 1;
C99 <= 1;
C100 <= 1;
C101 <= 1;
C102 <= 1;
C103 <= 1;
C104 <= 1;
C105 <= 1;
C106 <= 1;
C107 <= 1;
C108 <= 1;
C109 <= 1;
C110 <= 1;
C111 <= 1;
C112 <= 1;
C113 <= 1;
C114 <= 1;
C115 <= 1;
C116 <= 1;
C117 <= 1;
C118 <= 1;
C119 <= 1;
C120 <= 1;
C121 <= 1;
C122 <= 1;
C123 <= 1;
C124 <= 1;
C125 <= 1;
C126 <= 1;
C127 <= 1;
C128 <= 1;
C129 <= 1;
C130 <= 1;
C131 <= 1;
C132 <= 1;
C133 <= 1;
C134 <= 1;
C135 <= 1;
C136 <= 1;
C137 <= 1;
C138 <= 1;
C139 <= 1;
C140 <= 1;
C141 <= 1;
C142 <= 1;
C143 <= 1;
C144 <= 1;
C145 <= 1;
C146 <= 1;
C147 <= 1;
C148 <= 1;
C149 <= 1;
C150 <= 1;
C151 <= 1;
C152 <= 1;
C153 <= 1;
C154 <= 1;
C155 <= 1;
C156 <= 1;
C157 <= 1;
C158 <= 1;
C159 <= 1;
C160 <= 1;
C161 <= 1;
C162 <= 1;
C163 <= 1;
C164 <= 1;
C165 <= 1;
C166 <= 1;
C167 <= 1;
C168 <= 1;
C169 <= 1;
C170 <= 1;
C171 <= 1;
C172 <= 1;
C173 <= 1;
C174 <= 1;
C175 <= 1;
C176 <= 1;
C177 <= 1;
C178 <= 1;
C179 <= 1;
C180 <= 1;
C181 <= 1;
C182 <= 1;
C183 <= 1;
C184 <= 1;
C185 <= 1;
C186 <= 1;
C187 <= 1;
C188 <= 1;
C189 <= 1;
C190 <= 1;
C191 <= 1;
C192 <= 1;
C193 <= 1;
C194 <= 1;
C195 <= 1;
C196 <= 1;
C197 <= 1;
C198 <= 1;
C199 <= 1;
C200 <= 1;
C201 <= 1;
C202 <= 1;
C203 <= 1;
C204 <= 1;
C205 <= 1;
C206 <= 1;
C207 <= 1;
C208 <= 1;
C209 <= 1;
C210 <= 1;

/* Integer definitions */
int C1,C2,C3,C4,C5,C6,C7,C8,C9,C10,C11,C12,C13,C14,C15,C16,C17,C18,C19,C20,C21,C22,C23,C24,C25,C26,C27,C28,C29,C30,C31,C32,C33,C34,C35,C36,C37,C38,C39,C40,C41,C42,C43,C44,C45,C46,C47,C48,C49,C50,C51,C52,C53,C54,C55,C56,C57,C58,C59,C60,C61,C62,C63,C64,C65,C66,C67,C68,C69,C70,C71,C72,C73,C74,C75,C76,C77,C78,C79,C80,C81,C82,C83,C84,C85,C86,C87,C88,C89,C90,C91,C92,C93,C94,C95,C96,C97,C98,C99,C100,C101,C102,C103,C104,C105,C106,C107,C108,C109,C110,C111,C112,C113,C114,C115,C116,C117,C118,C119,C120,C121,C122,C123,C124,C125,C126,C127,C128,C129,C130,C131,C132,C133,C134,C135,C136,C137,C138,C139,C140,C141,C142,C143,C144,C145,C146,C147,C148,C149,C150,C151,C152,C153,C154,C155,C156,C157,C158,C159,C160,C161,C162,C163,C164,C165,C166,C167,C168,C169,C170,C171,C172,C173,C174,C175,C176,C177,C178,C179,C180,C181,C182,C183,C184,C185,C186,C187,C188,C189,C190,C191,C192,C193,C194,C195,C196,C197,C198,C199,C200,C201,C202,C203,C204,C205,C206,C207,C208,C209,C210;
